(declare-const term_to_project_onto2_integralized Int)
(declare-const term_to_project_onto3_integralized Int)
(declare-const tmp Int)
(declare-const term_to_project_onto_integralized Int)
(declare-const term_to_project_onto4_integralized Int)
(declare-const term_to_project_onto1_integralized Int)
(declare-const term_to_project_onto0_integralized Int)
(assert (exists
         ((|tmp'?1?1| Int) (|d'?2?2| Int) (|b'?3?3| Int) (|a'?4?4| Int)
            (phi_tmp?5?5 Int) (phi_tmp?6?6 Int) (phi_b?7?7 Int)
            (phi_a?8?8 Int) (phi_d?9?9 Int) (phi_d?10?10 Int)
            (phi_d?11?11 Int) (phi_a?12?12 Int) (phi_b?13?13 Int)
            (phi_a?14?14 Int) (phi_b?15?15 Int) (phi_a?16?16 Int)
            (|st'?17?17| Int) (|c'?18?18| Int) (K?19?19 Int)
            (|st'?20?20| Int) (|c'?21?21| Int) (d?22?22 Int) (st?23?23 Int)
            (b?24?24 Int) (a?25?25 Int) (SIZE?26?26 Int) (c?27?27 Int)
            (last?28?28 Int))
         (and (<= (- d?22?22) 0) (<= (- st?23?23) 0) (<= (- b?24?24) 0)
                (<= (- a?25?25) 0) (<= (+ (- SIZE?26?26) 1) 0)
                (<= (- c?27?27) 0) (<= (+ (- last?28?28) 1) 0)
                (= (+ (- SIZE?26?26) 200000) 0)
                (= (+ (- |c'?18?18|) K?19?19) 0) (<= (+ |st'?17?17| -1) 0)
                (or (and (= K?19?19 0) (= (+ (- |st'?17?17|) 1) 0)
                           (= (- |c'?18?18|) 0))
                      (and (<= (+ (- K?19?19) 1) 0)
                             (= (+ SIZE?26?26 -200000) 0)
                             (<= (+ (- last?28?28) 1) 0)
                             (= (+ SIZE?26?26 -200000) 0)
                             (<= (+ |c'?18?18| -200000) 0)
                             (<= (- |st'?17?17|) 0)
                             (<= (+ (- |c'?18?18|) 1) 0)
                             (<= (+ (- last?28?28) 1) 0))) (<= (- K?19?19) 0)
                (<= (- |st'?17?17|) 0) (<= (+ (- SIZE?26?26) 1) 0)
                (<= (- |c'?18?18|) 0) (<= (+ (- last?28?28) 1) 0)
                (= (+ (- SIZE?26?26) 200000) 0)
                (<= (+ (- |c'?18?18|) SIZE?26?26) 0)
                (or (and (= |st'?17?17| 0)
                           (or (and (or (<= (+ |c'?18?18| (- last?28?28)) 0)
                                          (<= (+ (- |c'?18?18|) last?28?28 2) 0))
                                      (= (+ (- phi_a?16?16) a?25?25 2) 0)
                                      (= (+ (- phi_b?15?15) b?24?24 2) 0))
                                 (and (= (+ |c'?18?18| (- last?28?28) -1) 0)
                                        (= (+ (- phi_a?16?16) a?25?25 3) 0)
                                        (= (+ (- phi_b?15?15) b?24?24 3) 0)))
                           (= (+ (- phi_a?14?14) phi_a?16?16) 0)
                           (= (+ (- phi_b?13?13) phi_b?15?15) 0))
                      (and (or (<= (+ |st'?17?17| 1) 0)
                                 (<= (+ (- |st'?17?17|) 1) 0))
                             (= (+ (- phi_a?14?14) a?25?25 2) 0)
                             (= (+ (- phi_b?13?13) b?24?24 2) 0)))
                (or (and (= (+ |c'?18?18| (- last?28?28)) 0)
                           (= |st'?17?17| 0)
                           (= (+ (- phi_a?12?12) phi_a?14?14 1) 0)
                           (= (+ (- phi_d?11?11) d?22?22) 0))
                      (and (or (<= (+ |c'?18?18| (- last?28?28) 1) 0)
                                 (<= (+ (- |c'?18?18|) last?28?28 1) 0)
                                 (and (= (+ |c'?18?18| (- last?28?28)) 0)
                                        (or (<= (+ |st'?17?17| 1) 0)
                                              (<= (+ (- |st'?17?17|) 1) 0))))
                             (or (and (= (+ |st'?17?17| -1) 0)
                                        (or (and (<= (+ (- last?28?28)
                                                          SIZE?26?26) 0)
                                                   (= (+ (- phi_d?10?10)
                                                           d?22?22) 0))
                                              (and (<= (+ last?28?28
                                                            (- SIZE?26?26) 1) 0)
                                                     (= (+ (- phi_d?10?10)
                                                             d?22?22 1) 0)))
                                        (= (+ (- phi_d?9?9) phi_d?10?10) 0))
                                   (and (or (<= |st'?17?17| 0)
                                              (<= (+ (- |st'?17?17|) 2) 0))
                                          (= (+ (- phi_d?9?9) d?22?22) 0)))
                             (= (+ (- phi_a?12?12) phi_a?14?14) 0)
                             (= (+ phi_d?9?9 (- phi_d?11?11)) 0)))
                (or (and (or (<= (+ phi_d?11?11 (- SIZE?26?26) 1) 0)
                               (<= (+ (- phi_d?11?11) SIZE?26?26 1) 0))
                           (= (+ (- phi_a?8?8) phi_a?12?12) 0)
                           (= (+ (- phi_b?7?7) phi_b?13?13) 0))
                      (and (= (+ phi_d?11?11 (- SIZE?26?26)) 0)
                             (= (- phi_a?8?8) 0) (= (+ (- phi_b?7?7) 1) 0)))
                (or (and (= (+ (- phi_b?7?7) phi_a?8?8) 0)
                           (or (and (or (<= (+ |c'?18?18| (- SIZE?26?26) 1) 0)
                                          (<= (+ (- |c'?18?18|) SIZE?26?26 1) 0))
                                      (= (- phi_tmp?6?6) 0))
                                 (and (= (+ |c'?18?18| (- SIZE?26?26)) 0)
                                        (= (+ (- phi_tmp?6?6) 1) 0)))
                           (= (+ (- phi_tmp?5?5) phi_tmp?6?6) 0))
                      (and (or (<= (+ (- phi_b?7?7) phi_a?8?8 1) 0)
                                 (<= (+ phi_b?7?7 (- phi_a?8?8) 1) 0))
                             (= (- phi_tmp?5?5) 0)))
                (or (<= (+ phi_tmp?5?5 1) 0) (<= (+ (- phi_tmp?5?5) 1) 0))
                (= (+ |tmp'?1?1| (- phi_tmp?5?5)) 0)
                (= (+ |d'?2?2| (- phi_d?11?11)) 0)
                (= (+ |st'?20?20| (- |st'?17?17|)) 0)
                (= (+ |c'?21?21| (- |c'?18?18|)) 0)
                (= (+ |b'?3?3| (- phi_b?7?7)) 0)
                (= (+ |a'?4?4| (- phi_a?8?8)) 0)
                (= (+ term_to_project_onto4_integralized
                        (- (+ |a'?4?4| (- a?25?25)))) 0)
                (= (+ term_to_project_onto3_integralized
                        (- (+ |b'?3?3| (- b?24?24)))) 0)
                (= (+ term_to_project_onto2_integralized
                        (- (+ |c'?21?21| (- c?27?27)))) 0)
                (= (+ term_to_project_onto1_integralized
                        (- (+ |st'?20?20| (- st?23?23)))) 0)
                (= (+ term_to_project_onto0_integralized
                        (- (+ |d'?2?2| (- d?22?22)))) 0)
                (= (+ term_to_project_onto_integralized
                        (- (+ |tmp'?1?1| (- tmp)))) 0))))